NAME: random-25-4980
TYPE: TSP
COMMENT: size=25 seed=4980
DIMENSION: 52
EDGE_WEIGHT_TYPE: EUC_2D
NODE_COORD_SECTION
+0 860 235
-0 860 235
+1 909 330
-1 722 580
+2 386 682
-2 77 558
+3 874 876
-3 158 801
+4 186 834
-4 77 956
+5 827 880
-5 169 309
+6 989 612
-6 341 808
+7 743 623
-7 209 115
+8 131 968
-8 545 142
+9 370 418
-9 475 687
+10 850 789
-10 234 383
+11 432 533
-11 625 145
+12 494 929
-12 381 727
+13 792 377
-13 157 837
+14 486 990
-14 431 193
+15 825 416
-15 583 84
+16 269 320
-16 185 43
+17 247 891
-17 69 669
+18 87 890
-18 914 856
+19 898 177
-19 76 375
+20 766 392
-20 307 64
+21 679 755
-21 998 956
+22 861 65
-22 73 865
+23 944 628
-23 839 516
+24 36 330
-24 613 124
+25 255 550
-25 370 904
PRECEDENCE_SECTION
+0 -0
+1 -1
+2 -2
+3 -3
+4 -4
+5 -5
+6 -6
+7 -7
+8 -8
+9 -9
+10 -10
+11 -11
+12 -12
+13 -13
+14 -14
+15 -15
+16 -16
+17 -17
+18 -18
+19 -19
+20 -20
+21 -21
+22 -22
+23 -23
+24 -24
+25 -25
EOF
